
Gurobi 6.5.2 (win64) logging started 07/23/16 03:27:42


Gurobi 6.5.2 (win64) logging started 07/23/16 03:27:42

Optimize a model with 29105 rows, 1649 columns and 62747 nonzeros
Coefficient statistics:
  Matrix range    [4e-06, 1e+03]
  Objective range [1e+00, 1e+00]
  Bounds range    [1e+00, 1e+00]
  RHS range       [1e+00, 1e+03]
Found heuristic solution: objective 930.299
Presolve removed 29079 rows and 1623 columns
Presolve time: 0.01s
Presolved: 26 rows, 26 columns, 78 nonzeros
Found heuristic solution: objective 295.3100953
Variable types: 26 continuous, 0 integer (0 binary)

Root relaxation: objective 2.224735e+02, 19 iterations, 0.00 seconds

    Nodes    |    Current Node    |     Objective Bounds      |     Work
 Expl Unexpl |  Obj  Depth IntInf | Incumbent    BestBd   Gap | It/Node Time

*    0     0               0     222.4734565  222.47346  0.00%     -    0s

Explored 0 nodes (19 simplex iterations) in 0.02 seconds
Thread count was 8 (of 8 available processors)

Optimal solution found (tolerance 1.00e-04)
Best objective 2.224734564952e+02, best bound 2.224734564952e+02, gap 0.0%

Wrote requested result file 'H2\instance25\\Results25EC_Sol4.lp'

